QPLIB_2993
LCQ
minimize
266 # number of variables
319 # number of constraints
0.0 # default value for linear coefficients in objective
3 # number of non-default linear coefficients in objective
1 1.0
2 1.0
3 1.0
0.0 # objective constant
84 # number of quadratic terms in all constraints
236 1 1 2.0
237 1651076122 1 2.0
238 1852403556 1 2.0
239 1768711012 50 2.0
240 775173731 1 2.0
241 1864396660 1651076122 2.0
242 1852403556 824205172 2.0
243 1768711012 12321 2.0
244 775173731 1 2.0
245 1931505524 1 2.0
246 824209508 1 2.0
247 50 -900648671 2.0
248 32622 1 2.0
249 1651076122 385 2.0
250 1852403556 1 2.0
251 1768711012 50 2.0
252 775173731 1 2.0
253 1931505524 1651076121 2.0
254 1684959076 824209508 2.0
255 1651076196 -900648671 2.0
256 1932407863 32622 2.0
257 1868767344 385 2.0
258 540090479 1 2.0
259 50 50 2.0
260 1 1 2.0
261 1651076121 33354225 2.0
262 1684959076 1 2.0
263 1651076196 50 2.0
264 1932407863 1 2.0
265 1868767344 1651076121 2.0
266 1684959076 540090479 2.0
267 1651076196 50 2.0
268 1932407863 1 2.0
269 1868767344 33354225 2.0
270 540090479 1 2.0
271 50 -900632014 2.0
272 32622 1 2.0
273 1651076121 481 2.0
274 1684959076 1 2.0
275 1651076196 50 2.0
276 1932407863 1 2.0
277 1868767344 1651076121 2.0
278 1681157988 540090479 2.0
279 1651076196 -900632014 2.0
280 1932407863 32622 2.0
281 1868767344 481 2.0
282 540090421 1 2.0
283 2097 50 2.0
284 1 1 2.0
285 1651076121 33373073 2.0
286 1681157988 1 2.0
287 1651076196 50 2.0
288 1932407863 1 2.0
289 1868767344 1651076121 2.0
290 1684959076 540090421 2.0
291 1651076196 2097 2.0
292 1932407863 1 2.0
293 1868767344 33373073 2.0
294 540090479 1 2.0
295 50 50 2.0
296 1 1 2.0
297 1651076121 -900596743 2.0
298 1684959076 32622 2.0
299 1651076196 50 2.0
300 1932407863 1 2.0
301 1868767344 1651076121 2.0
302 1684305508 540090479 2.0
303 1651076196 50 2.0
304 1932407863 1 2.0
305 1986207856 -900596743 2.0
306 540090469 32622 2.0
307 33355825 50 2.0
308 1 1 2.0
309 1651076121 33373089 2.0
310 1684305508 1 2.0
311 1651076196 50 2.0
312 1932407863 1 2.0
313 1986207856 1651076122 2.0
314 1852403556 540090469 2.0
315 1768711012 33355825 2.0
316 775173731 1 2.0
317 1663070068 33373089 2.0
318 824210800 1 2.0
319 33370145 50 2.0
998 # number of linear terms in all constraints
1 4 -1.0
1 5 -1.0
1 6 -1.0
1 7 -1.0
2 8 -1.0
2 9 -1.0
2 10 -1.0
2 11 -1.0
3 12 -1.0
3 13 -1.0
3 14 -1.0
3 15 -1.0
4 16 -1.0
4 17 -1.0
4 18 -1.0
4 19 -1.0
5 20 -1.0
5 21 -1.0
5 22 -1.0
5 23 -1.0
6 1 1.0
6 5 -1.0
6 9 -1.0
6 13 -1.0
6 17 -1.0
6 21 -1.0
6 24 -1.0
6 25 -1.0
6 26 -1.0
7 2 1.0
7 6 -1.0
7 10 -1.0
7 14 -1.0
7 18 -1.0
7 22 -1.0
7 27 -1.0
7 28 -1.0
7 29 -1.0
8 3 1.0
8 7 -1.0
8 11 -1.0
8 15 -1.0
8 19 -1.0
8 23 -1.0
8 30 -1.0
8 31 -1.0
8 32 -1.0
9 1 1.0
9 24 -1.0
9 27 -1.0
9 30 -1.0
9 33 -1.0
10 2 1.0
10 25 -1.0
10 28 -1.0
10 31 -1.0
10 34 -1.0
11 3 1.0
11 26 -1.0
11 29 -1.0
11 32 -1.0
11 35 -1.0
12 4 -1.0
12 8 -1.0
12 12 -1.0
12 16 -1.0
12 20 -1.0
12 33 -1.0
12 34 -1.0
12 35 -1.0
12 36 1.0
13 37 -1.0
13 38 -1.0
13 39 -1.0
13 40 -1.0
14 41 -1.0
14 42 -1.0
14 43 -1.0
14 44 -1.0
15 45 -1.0
15 46 -1.0
15 47 -1.0
15 48 -1.0
16 49 -1.0
16 50 -1.0
16 51 -1.0
16 52 -1.0
17 53 -1.0
17 54 -1.0
17 55 -1.0
17 56 -1.0
18 57 -1.0
18 58 -1.0
18 59 -1.0
18 60 -1.0
19 61 -1.0
19 62 -1.0
19 63 -1.0
19 64 -1.0
20 65 -1.0
20 66 -1.0
20 67 -1.0
20 68 -1.0
21 69 -1.0
21 70 -1.0
21 71 -1.0
21 72 -1.0
22 73 -1.0
22 74 -1.0
22 75 -1.0
22 76 -1.0
23 77 -1.0
23 78 -1.0
23 79 -1.0
23 80 -1.0
24 81 -1.0
24 82 -1.0
24 83 -1.0
24 84 -1.0
25 85 -1.0
25 86 -1.0
25 87 -1.0
25 88 -1.0
26 89 -1.0
26 90 -1.0
26 91 -1.0
26 92 -1.0
27 93 -1.0
27 94 -1.0
27 95 -1.0
27 96 -1.0
28 97 -1.0
28 98 -1.0
28 99 -1.0
28 100 -1.0
29 101 -1.0
29 102 -1.0
29 103 -1.0
29 104 -1.0
30 105 -1.0
30 106 -1.0
30 107 -1.0
30 108 -1.0
31 109 -1.0
31 110 -1.0
31 111 -1.0
31 112 -1.0
32 113 -1.0
32 114 -1.0
32 115 -1.0
32 116 -1.0
33 117 -1.0
33 118 -1.0
33 119 -1.0
33 120 -1.0
34 121 -1.0
34 122 -1.0
34 123 -1.0
34 124 -1.0
35 125 -1.0
35 126 -1.0
35 127 -1.0
35 128 -1.0
36 129 -1.0
36 130 -1.0
36 131 -1.0
36 132 -1.0
37 133 -1.0
37 134 -1.0
37 135 -1.0
37 136 -1.0
38 137 -1.0
38 138 -1.0
38 139 -1.0
38 140 -1.0
39 141 -1.0
39 142 -1.0
39 143 -1.0
39 144 -1.0
40 38 -1.0
40 145 20900.0
41 42 -1.0
41 145 9500.0
42 46 -1.0
42 145 9500.0
43 50 -1.0
43 145 3800.0
44 54 -1.0
44 145 15200.0
45 58 -1.0
45 145 1900.0
46 39 -1.0
46 146 20900.0
47 43 -1.0
47 146 9500.0
48 47 -1.0
48 146 9500.0
49 51 -1.0
49 146 3800.0
50 55 -1.0
50 146 15200.0
51 59 -1.0
51 146 1900.0
52 40 -1.0
52 147 20900.0
53 44 -1.0
53 147 9500.0
54 48 -1.0
54 147 9500.0
55 52 -1.0
55 147 3800.0
56 56 -1.0
56 147 15200.0
57 60 -1.0
57 147 1900.0
58 62 -1.0
58 148 280.0
59 66 -1.0
59 148 700.0
60 70 -1.0
60 148 2100.0
61 74 -1.0
61 148 6370.0
62 78 -1.0
62 148 1400.0
63 63 -1.0
63 149 280.0
64 67 -1.0
64 149 700.0
65 71 -1.0
65 149 2100.0
66 75 -1.0
66 149 6370.0
67 79 -1.0
67 149 1400.0
68 64 -1.0
68 150 280.0
69 68 -1.0
69 150 700.0
70 72 -1.0
70 150 2100.0
71 76 -1.0
71 150 6370.0
72 80 -1.0
72 150 1400.0
73 82 -1.0
73 151 1600.0
74 86 -1.0
74 151 1760.0
75 90 -1.0
75 151 1600.0
76 94 -1.0
76 151 4000.0
77 98 -1.0
77 151 1200.0
78 83 -1.0
78 152 1600.0
79 87 -1.0
79 152 1760.0
80 91 -1.0
80 152 1600.0
81 95 -1.0
81 152 4000.0
82 99 -1.0
82 152 1200.0
83 84 -1.0
83 153 1600.0
84 88 -1.0
84 153 1760.0
85 92 -1.0
85 153 1600.0
86 96 -1.0
86 153 4000.0
87 100 -1.0
87 153 1200.0
88 102 -1.0
88 154 360.0
89 106 -1.0
89 154 3060.0
90 110 -1.0
90 154 3000.0
91 114 -1.0
91 154 1200.0
92 118 -1.0
92 154 4680.0
93 122 -1.0
93 154 600.0
94 103 -1.0
94 155 360.0
95 107 -1.0
95 155 3060.0
96 111 -1.0
96 155 3000.0
97 115 -1.0
97 155 1200.0
98 119 -1.0
98 155 4680.0
99 123 -1.0
99 155 600.0
100 104 -1.0
100 156 360.0
101 108 -1.0
101 156 3060.0
102 112 -1.0
102 156 3000.0
103 116 -1.0
103 156 1200.0
104 120 -1.0
104 156 4680.0
105 124 -1.0
105 156 600.0
106 126 -1.0
106 157 6800.0
107 130 -1.0
107 157 2890.0
108 134 -1.0
108 157 1700.0
109 138 -1.0
109 157 5100.0
110 142 -1.0
110 157 15300.0
111 127 -1.0
111 158 6800.0
112 131 -1.0
112 158 2890.0
113 135 -1.0
113 158 1700.0
114 139 -1.0
114 158 5100.0
115 143 -1.0
115 158 15300.0
116 128 -1.0
116 159 6800.0
117 132 -1.0
117 159 2890.0
118 136 -1.0
118 159 1700.0
119 140 -1.0
119 159 5100.0
120 144 -1.0
120 159 15300.0
121 37 -1.0
121 160 20900.0
122 41 -1.0
122 160 9500.0
123 45 -1.0
123 160 9500.0
124 49 -1.0
124 160 3800.0
125 53 -1.0
125 160 15200.0
126 57 -1.0
126 160 1900.0
127 61 -1.0
127 161 280.0
128 65 -1.0
128 161 700.0
129 69 -1.0
129 161 2100.0
130 73 -1.0
130 161 6370.0
131 77 -1.0
131 161 1400.0
132 81 -1.0
132 162 1600.0
133 85 -1.0
133 162 1760.0
134 89 -1.0
134 162 1600.0
135 93 -1.0
135 162 4000.0
136 97 -1.0
136 162 1200.0
137 101 -1.0
137 163 360.0
138 105 -1.0
138 163 3060.0
139 109 -1.0
139 163 3000.0
140 113 -1.0
140 163 1200.0
141 117 -1.0
141 163 4680.0
142 121 -1.0
142 163 600.0
143 125 -1.0
143 164 6800.0
144 129 -1.0
144 164 2890.0
145 133 -1.0
145 164 1700.0
146 137 -1.0
146 164 5100.0
147 141 -1.0
147 164 15300.0
148 5 -1.0
148 145 19.0
149 6 -1.0
149 146 19.0
150 7 -1.0
150 147 19.0
151 9 -1.0
151 148 7.0
152 10 -1.0
152 149 7.0
153 11 -1.0
153 150 7.0
154 13 -1.0
154 151 8.0
155 14 -1.0
155 152 8.0
156 15 -1.0
156 153 8.0
157 17 -1.0
157 154 6.0
158 18 -1.0
158 155 6.0
159 19 -1.0
159 156 6.0
160 21 -1.0
160 157 17.0
161 22 -1.0
161 158 17.0
162 23 -1.0
162 159 17.0
163 4 -1.0
163 160 19.0
164 8 -1.0
164 161 7.0
165 12 -1.0
165 162 8.0
166 16 -1.0
166 163 6.0
167 20 -1.0
167 164 17.0
168 145 1.0
168 146 1.0
168 147 1.0
168 160 1.0
169 148 1.0
169 149 1.0
169 150 1.0
169 161 1.0
170 151 1.0
170 152 1.0
170 153 1.0
170 162 1.0
171 154 1.0
171 155 1.0
171 156 1.0
171 163 1.0
172 157 1.0
172 158 1.0
172 159 1.0
172 164 1.0
173 1 -1100.0
173 38 1.0
173 62 1.0
173 82 1.0
173 102 1.0
173 126 1.0
173 165 1.0
173 166 1.0
173 167 1.0
174 1 -1100.0
174 42 1.0
174 86 1.0
174 106 1.0
174 130 1.0
174 168 1.0
174 169 1.0
174 170 1.0
175 1 -1100.0
175 46 1.0
175 66 1.0
175 90 1.0
175 110 1.0
175 134 1.0
175 171 1.0
175 172 1.0
175 173 1.0
176 1 -1100.0
176 50 1.0
176 70 1.0
176 94 1.0
176 114 1.0
176 138 1.0
176 174 1.0
176 175 1.0
176 176 1.0
177 1 -1100.0
177 54 1.0
177 74 1.0
177 98 1.0
177 118 1.0
177 142 1.0
177 177 1.0
177 178 1.0
177 179 1.0
178 1 -1100.0
178 58 1.0
178 78 1.0
178 122 1.0
178 180 1.0
178 181 1.0
178 182 1.0
179 2 -1100.0
179 39 1.0
179 63 1.0
179 83 1.0
179 103 1.0
179 127 1.0
179 183 1.0
179 184 1.0
179 185 1.0
180 2 -1100.0
180 43 1.0
180 87 1.0
180 107 1.0
180 131 1.0
180 186 1.0
180 187 1.0
180 188 1.0
181 2 -1100.0
181 47 1.0
181 67 1.0
181 91 1.0
181 111 1.0
181 135 1.0
181 189 1.0
181 190 1.0
181 191 1.0
182 2 -1100.0
182 51 1.0
182 71 1.0
182 95 1.0
182 115 1.0
182 139 1.0
182 192 1.0
182 193 1.0
182 194 1.0
183 2 -1100.0
183 55 1.0
183 75 1.0
183 99 1.0
183 119 1.0
183 143 1.0
183 195 1.0
183 196 1.0
183 197 1.0
184 2 -1100.0
184 59 1.0
184 79 1.0
184 123 1.0
184 198 1.0
184 199 1.0
184 200 1.0
185 3 -1100.0
185 40 1.0
185 64 1.0
185 84 1.0
185 104 1.0
185 128 1.0
185 201 1.0
185 202 1.0
185 203 1.0
186 3 -1100.0
186 44 1.0
186 88 1.0
186 108 1.0
186 132 1.0
186 204 1.0
186 205 1.0
186 206 1.0
187 3 -1100.0
187 48 1.0
187 68 1.0
187 92 1.0
187 112 1.0
187 136 1.0
187 207 1.0
187 208 1.0
187 209 1.0
188 3 -1100.0
188 52 1.0
188 72 1.0
188 96 1.0
188 116 1.0
188 140 1.0
188 210 1.0
188 211 1.0
188 212 1.0
189 3 -1100.0
189 56 1.0
189 76 1.0
189 100 1.0
189 120 1.0
189 144 1.0
189 213 1.0
189 214 1.0
189 215 1.0
190 3 -1100.0
190 60 1.0
190 80 1.0
190 124 1.0
190 216 1.0
190 217 1.0
190 218 1.0
191 38 0.01
191 62 0.01
191 82 0.01
191 102 0.01
191 126 0.01
191 165 0.01
191 166 0.01
191 167 0.01
191 219 -1.0
192 42 0.01
192 86 0.01
192 106 0.01
192 130 0.01
192 168 0.01
192 169 0.01
192 170 0.01
192 220 -1.0
193 46 1.0
193 66 1.0
193 90 1.0
193 110 1.0
193 134 1.0
193 171 1.0
193 172 1.0
193 173 1.0
193 221 -1.0
194 50 1.0
194 70 1.0
194 94 1.0
194 114 1.0
194 138 1.0
194 174 1.0
194 175 1.0
194 176 1.0
194 222 -1.0
195 54 1.0
195 74 1.0
195 98 1.0
195 118 1.0
195 142 1.0
195 177 1.0
195 178 1.0
195 179 1.0
195 223 -1.0
196 58 1.0
196 78 1.0
196 122 1.0
196 180 1.0
196 181 1.0
196 182 1.0
196 224 -1.0
197 39 1.0
197 63 1.0
197 83 1.0
197 103 1.0
197 127 1.0
197 183 1.0
197 184 1.0
197 185 1.0
197 225 -1.0
198 43 1.0
198 87 1.0
198 107 1.0
198 131 1.0
198 186 1.0
198 187 1.0
198 188 1.0
198 226 -1.0
199 47 0.01
199 67 0.01
199 91 0.01
199 111 0.01
199 135 0.01
199 189 0.01
199 190 0.01
199 191 0.01
199 227 -1.0
200 51 0.01
200 71 0.01
200 95 0.01
200 115 0.01
200 139 0.01
200 192 0.01
200 193 0.01
200 194 0.01
200 228 -1.0
201 55 1.0
201 75 1.0
201 99 1.0
201 119 1.0
201 143 1.0
201 195 1.0
201 196 1.0
201 197 1.0
201 229 -1.0
202 59 1.0
202 79 1.0
202 123 1.0
202 198 1.0
202 199 1.0
202 200 1.0
202 230 -1.0
203 40 1.0
203 64 1.0
203 84 1.0
203 104 1.0
203 128 1.0
203 201 1.0
203 202 1.0
203 203 1.0
203 231 -1.0
204 44 1.0
204 88 1.0
204 108 1.0
204 132 1.0
204 204 1.0
204 205 1.0
204 206 1.0
204 232 -1.0
205 48 1.0
205 68 1.0
205 92 1.0
205 112 1.0
205 136 1.0
205 207 1.0
205 208 1.0
205 209 1.0
205 233 -1.0
206 52 1.0
206 72 1.0
206 96 1.0
206 116 1.0
206 140 1.0
206 210 1.0
206 211 1.0
206 212 1.0
206 234 -1.0
207 56 0.01
207 76 0.01
207 100 0.01
207 120 0.01
207 144 0.01
207 213 0.01
207 214 0.01
207 215 0.01
207 235 -1.0
208 60 0.01
208 80 0.01
208 124 0.01
208 216 0.01
208 217 0.01
208 218 0.01
208 236 -1.0
209 165 -1.0
209 183 -1.0
209 201 -1.0
209 219 1.0
209 237 -1.0
210 168 -1.0
210 186 -1.0
210 204 -1.0
210 220 1.0
210 238 -1.0
211 171 -1.0
211 189 -1.0
211 207 -1.0
211 221 1.0
211 239 -1.0
212 174 -1.0
212 192 -1.0
212 210 -1.0
212 222 1.0
212 240 -1.0
213 177 -1.0
213 195 -1.0
213 213 -1.0
213 223 1.0
213 241 -1.0
214 180 -1.0
214 198 -1.0
214 216 -1.0
214 224 1.0
214 242 -1.0
215 166 -1.0
215 184 -1.0
215 202 -1.0
215 225 1.0
215 243 -1.0
216 169 -1.0
216 187 -1.0
216 205 -1.0
216 226 1.0
216 244 -1.0
217 172 -1.0
217 190 -1.0
217 208 -1.0
217 227 1.0
217 245 -1.0
218 175 -1.0
218 193 -1.0
218 211 -1.0
218 228 1.0
218 246 -1.0
219 178 -1.0
219 196 -1.0
219 214 -1.0
219 229 1.0
219 247 -1.0
220 181 -1.0
220 199 -1.0
220 217 -1.0
220 230 1.0
220 248 -1.0
221 167 -1.0
221 185 -1.0
221 203 -1.0
221 231 1.0
221 249 -1.0
222 170 -1.0
222 188 -1.0
222 206 -1.0
222 232 1.0
222 250 -1.0
223 173 -1.0
223 191 -1.0
223 209 -1.0
223 233 1.0
223 251 -1.0
224 176 -1.0
224 194 -1.0
224 212 -1.0
224 234 1.0
224 252 -1.0
225 179 -1.0
225 197 -1.0
225 215 -1.0
225 235 1.0
225 253 -1.0
226 182 -1.0
226 200 -1.0
226 218 -1.0
226 236 1.0
226 254 -1.0
227 255 1.0
227 256 1.0
227 257 1.0
227 258 1.0
228 259 1.0
228 260 1.0
228 261 1.0
228 262 1.0
229 263 1.0
229 264 1.0
229 265 1.0
229 266 1.0
230 36 -100.0
230 37 1.0
230 61 1.0
230 81 1.0
230 101 1.0
230 125 1.0
230 237 1.0
230 243 1.0
230 249 1.0
231 36 -100.0
231 41 1.0
231 85 1.0
231 105 1.0
231 129 1.0
231 238 1.0
231 244 1.0
231 250 1.0
232 36 -100.0
232 45 1.0
232 65 1.0
232 89 1.0
232 109 1.0
232 133 1.0
232 239 1.0
232 245 1.0
232 251 1.0
233 36 -100.0
233 49 1.0
233 69 1.0
233 93 1.0
233 113 1.0
233 137 1.0
233 240 1.0
233 246 1.0
233 252 1.0
234 36 -100.0
234 53 1.0
234 73 1.0
234 97 1.0
234 117 1.0
234 141 1.0
234 241 1.0
234 247 1.0
234 253 1.0
235 36 -100.0
235 57 1.0
235 77 1.0
235 121 1.0
235 242 1.0
235 248 1.0
235 254 1.0
236 165 -1.0
237 168 -1.0
238 171 -1.0
239 174 -1.0
240 177 -1.0
241 180 -1.0
242 183 -1.0
243 186 -1.0
244 189 -1.0
245 192 -1.0
246 195 -1.0
247 198 -1.0
248 201 -1.0
249 204 -1.0
250 207 -1.0
251 210 -1.0
252 213 -1.0
253 216 -1.0
254 166 -1.0
255 169 -1.0
256 172 -1.0
257 175 -1.0
258 178 -1.0
259 181 -1.0
260 184 -1.0
261 187 -1.0
262 190 -1.0
263 193 -1.0
264 196 -1.0
265 199 -1.0
266 202 -1.0
267 205 -1.0
268 208 -1.0
269 211 -1.0
270 214 -1.0
271 217 -1.0
272 167 -1.0
273 170 -1.0
274 173 -1.0
275 176 -1.0
276 179 -1.0
277 182 -1.0
278 185 -1.0
279 188 -1.0
280 191 -1.0
281 194 -1.0
282 197 -1.0
283 200 -1.0
284 203 -1.0
285 206 -1.0
286 209 -1.0
287 212 -1.0
288 215 -1.0
289 218 -1.0
290 237 -1.0
291 238 -1.0
292 239 -1.0
293 240 -1.0
294 241 -1.0
295 242 -1.0
296 243 -1.0
297 244 -1.0
298 245 -1.0
299 246 -1.0
300 247 -1.0
301 248 -1.0
302 249 -1.0
303 250 -1.0
304 251 -1.0
305 252 -1.0
306 253 -1.0
307 254 -1.0
308 24 -1.0
309 27 -1.0
310 30 -1.0
311 25 -1.0
312 28 -1.0
313 31 -1.0
314 26 -1.0
315 29 -1.0
316 32 -1.0
317 33 -1.0
318 34 -1.0
319 35 -1.0
1.79769313486232E+308 # value for infinity
0.0 # default left-hand-side value
64 # number of non-default left-hand-sides
1 -19.0
2 -7.0
3 -8.0
4 -6.0
5 -17.0
13 -20900.0
14 -9500.0
15 -9500.0
16 -3800.0
17 -15200.0
18 -1900.0
19 -280.0
20 -700.0
21 -2100.0
22 -6370.0
23 -1400.0
24 -1600.0
25 -1760.0
26 -1600.0
27 -4000.0
28 -1200.0
29 -360.0
30 -3060.0
31 -3000.0
32 -1200.0
33 -4680.0
34 -600.0
35 -6800.0
36 -2890.0
37 -1700.0
38 -5100.0
39 -15300.0
168 1.0
169 1.0
170 1.0
171 1.0
172 1.0
173 -1.79769313486232E+308
174 -1.79769313486232E+308
175 -1.79769313486232E+308
176 -1.79769313486232E+308
177 -1.79769313486232E+308
178 -1.79769313486232E+308
179 -1.79769313486232E+308
180 -1.79769313486232E+308
181 -1.79769313486232E+308
182 -1.79769313486232E+308
183 -1.79769313486232E+308
184 -1.79769313486232E+308
185 -1.79769313486232E+308
186 -1.79769313486232E+308
187 -1.79769313486232E+308
188 -1.79769313486232E+308
189 -1.79769313486232E+308
190 -1.79769313486232E+308
227 1.0
228 1.0
229 1.0
230 -1.79769313486232E+308
231 -1.79769313486232E+308
232 -1.79769313486232E+308
233 -1.79769313486232E+308
234 -1.79769313486232E+308
235 -1.79769313486232E+308
0.0 # default right-hand-side value
40 # number of non-default right-hand-sides
1 -19.0
2 -7.0
3 -8.0
4 -6.0
5 -17.0
13 -20900.0
14 -9500.0
15 -9500.0
16 -3800.0
17 -15200.0
18 -1900.0
19 -280.0
20 -700.0
21 -2100.0
22 -6370.0
23 -1400.0
24 -1600.0
25 -1760.0
26 -1600.0
27 -4000.0
28 -1200.0
29 -360.0
30 -3060.0
31 -3000.0
32 -1200.0
33 -4680.0
34 -600.0
35 -6800.0
36 -2890.0
37 -1700.0
38 -5100.0
39 -15300.0
168 1.0
169 1.0
170 1.0
171 1.0
172 1.0
227 1.0
228 1.0
229 1.0
0.0 # default variable lower bound value
0 # number of non-default variable lower bounds
1000000.0 # default variable upper bound value
0 # number of non-default variable upper bounds
0.0 # default variable primal value in starting point
0 # number of non-default variable primal values in starting point
0.0 # default constraint dual value in starting point
0 # number of non-default constraint dual values in starting point
0.0 # default variable bound dual value in starting point
0 # number of non-default variable bound dual values in starting point
0 # number of non-default variable names
0 # number of non-default constraint names
